data;

param n := 3;
param m := 4;
param u := 2;

param	c:	1		2		3		4	:=
	1				0		4		2		1
	2				4		0		3		0
	3				2		3		0		5
	4				1		0		5		0;

param	o:	1		2	:=
	1				1		0
	2				1		1
	3				0		1;

end;
